* ENCODING=ISO-8859-1
NAME          CPLEX
ROWS
 N  obj1    
 G  c1      
 G  c2      
 G  c3      
 G  c4      
 G  c5      
 G  c6      
 G  c7      
 G  c8      
 G  c9      
 G  c10     
 G  c11     
 G  c12     
 G  c13     
 G  c14     
 G  c15     
 G  c16     
 G  c17     
 G  c18     
 G  c19     
 G  c20     
 G  c21     
 G  c22     
 G  c23     
 G  c24     
 G  c25     
 G  c26     
 G  c27     
 G  c28     
 G  c29     
 G  c30     
 G  c31     
 G  c32     
 G  c33     
 G  c34     
 G  c35     
 G  c36     
 G  c37     
 G  c38     
 G  c39     
 G  c40     
 G  c41     
 G  c42     
 G  c43     
 G  c44     
 G  c45     
 G  c46     
 G  c47     
 G  c48     
 G  c49     
 G  c50     
 G  c51     
 G  c52     
 G  c53     
 G  c54     
 G  c55     
 G  c56     
 G  c57     
 G  c58     
 G  c59     
 G  c60     
COLUMNS
    MARK0000  'MARKER'                 'INTORG'
    x1        obj1                            1
    x1        c11                           485
    x1        c25                           971
    x1        c26                           439
    x1        c37                           122
    x1        c40                           292
    x1        c45                           103
    x1        c53                           411
    x2        obj1                            1
    x2        c5                            338
    x2        c6                            685
    x2        c11                           824
    x2        c22                           696
    x2        c24                           448
    x2        c34                           530
    x2        c35                           467
    x2        c38                           433
    x3        obj1                            1
    x3        c1                            832
    x3        c8                            736
    x3        c15                           651
    x3        c17                           755
    x3        c21                           204
    x3        c41                           692
    x3        c49                           194
    x3        c52                           853
    x3        c54                           126
    x4        obj1                            1
    x4        c13                           888
    x4        c23                           307
    x4        c29                           485
    x4        c44                           619
    x4        c48                           330
    x5        obj1                            1
    x5        c2                            840
    x5        c11                           279
    x5        c16                           649
    x5        c26                           241
    x5        c32                           841
    x6        obj1                            1
    x6        c6                            110
    x6        c8                            742
    x6        c16                           941
    x6        c24                           676
    x6        c31                           110
    x6        c38                           525
    x6        c52                           838
    x7        obj1                            1
    x7        c16                           655
    x7        c22                           703
    x7        c35                           277
    x7        c48                           189
    x7        c58                           740
    x8        obj1                            1
    x8        c3                            444
    x8        c35                           973
    x8        c40                           965
    x8        c44                           771
    x8        c49                           426
    x8        c54                           737
    x8        c55                           147
    x8        c57                           682
    x9        obj1                            1
    x9        c1                            902
    x9        c27                           841
    x9        c39                           687
    x9        c40                           785
    x10       obj1                            1
    x10       c30                           885
    x10       c44                           180
    x10       c51                           575
    x11       obj1                            1
    x11       c28                           452
    x11       c55                           610
    x11       c57                           491
    x11       c58                           380
    x12       obj1                            1
    x12       c6                            479
    x12       c7                            710
    x12       c26                           101
    x12       c27                           217
    x12       c44                           636
    x12       c56                           400
    x13       obj1                            1
    x13       c13                           133
    x13       c17                           753
    x13       c18                           245
    x13       c41                           258
    x14       obj1                            1
    x14       c2                            763
    x14       c4                            559
    x14       c21                           572
    x14       c31                           287
    x14       c47                           590
    x14       c54                           775
    x14       c59                           979
    x15       obj1                            1
    x15       c23                           845
    x15       c28                           965
    x15       c32                           919
    x15       c35                           867
    x15       c37                           741
    x15       c42                           845
    x15       c43                           319
    x15       c56                           916
    x16       obj1                            1
    x16       c11                           629
    x16       c13                           818
    x16       c29                           663
    x16       c31                           546
    x16       c37                           329
    x16       c44                           732
    x16       c53                           967
    x17       obj1                            1
    x17       c5                            493
    x17       c10                           921
    x17       c30                           304
    x17       c31                           445
    x17       c35                           119
    x18       obj1                            1
    x18       c31                           553
    x18       c53                           178
    x18       c55                           319
    x18       c60                           142
    x19       obj1                            1
    x19       c22                           285
    x19       c27                           274
    x19       c44                           663
    x20       obj1                            1
    x20       c46                           182
    x20       c50                           795
    x20       c54                           853
    x21       obj1                            1
    x21       c31                           161
    x21       c46                           955
    x21       c60                           682
    x22       obj1                            1
    x22       c6                            743
    x22       c11                           796
    x22       c12                           462
    x22       c18                           377
    x22       c20                           480
    x22       c22                           626
    x22       c36                           682
    x22       c38                           331
    x22       c43                           190
    x22       c47                           378
    x22       c50                           254
    x22       c55                           535
    x23       obj1                            1
    x23       c1                            378
    x23       c8                            690
    x23       c15                           783
    x23       c19                           141
    x23       c38                           628
    x23       c45                           716
    x23       c48                           696
    x23       c49                           842
    x23       c52                           167
    x24       obj1                            1
    x24       c8                            845
    x24       c18                           676
    x24       c24                           668
    x24       c30                           329
    x24       c43                           907
    x24       c54                           291
    x25       obj1                            1
    x25       c2                            929
    x25       c17                           494
    x25       c20                           779
    x25       c22                           715
    x25       c34                           957
    x25       c37                           830
    x25       c52                           711
    x26       obj1                            1
    x26       c20                           127
    x26       c25                           570
    x26       c32                           607
    x26       c38                           130
    x26       c42                           209
    x26       c58                           848
    x26       c59                           740
    x27       obj1                            1
    x27       c5                            207
    x27       c23                           870
    x27       c41                           371
    x27       c46                           720
    x27       c57                           387
    x28       obj1                            1
    x28       c8                            256
    x28       c11                           476
    x28       c16                           803
    x28       c28                           762
    x28       c36                           714
    x28       c55                           326
    x29       obj1                            1
    x29       c1                            951
    x29       c7                            813
    x29       c8                            731
    x29       c11                           616
    x29       c17                           640
    x29       c24                           484
    x29       c31                           678
    x29       c42                           324
    x29       c47                           229
    x30       obj1                            1
    x30       c14                           120
    x30       c27                           530
    x30       c30                           215
    x30       c45                           728
    x30       c49                           619
    x30       c57                           492
    x31       obj1                            1
    x31       c23                           246
    x31       c33                           370
    x31       c45                           299
    x31       c53                           494
    x32       obj1                            1
    x32       c36                           782
    x32       c49                           986
    x32       c57                           573
    x33       obj1                            1
    x33       c2                            418
    x33       c3                            569
    x33       c12                           170
    x33       c14                           152
    x33       c35                           821
    x33       c54                           769
    x34       obj1                            1
    x34       c29                           735
    x34       c37                           261
    x34       c40                           322
    x35       obj1                            1
    x35       c4                            912
    x35       c6                            822
    x35       c17                           569
    x35       c18                           647
    x35       c30                           592
    x35       c32                           355
    x35       c51                           365
    x35       c54                           521
    x35       c55                           490
    x36       obj1                            1
    x36       c22                           735
    x36       c34                           329
    x36       c49                           863
    x36       c50                           850
    x36       c54                           900
    x37       obj1                            1
    x37       c6                            962
    x37       c11                           147
    x37       c29                           139
    x37       c34                           898
    x37       c51                           664
    x37       c52                           667
    x37       c59                           937
    x38       obj1                            1
    x38       c3                            833
    x38       c10                           413
    x38       c28                           834
    x38       c33                           516
    x38       c39                           282
    x38       c43                           328
    x38       c48                           470
    x38       c55                           408
    x38       c59                           461
    x39       obj1                            1
    x39       c7                            235
    x39       c30                           642
    x39       c43                           161
    x39       c53                           482
    x40       obj1                            1
    x40       c1                            964
    x40       c4                            385
    x40       c13                           460
    x40       c16                           250
    x40       c23                           505
    x40       c35                           135
    x40       c40                           571
    x40       c41                           876
    x40       c48                           483
    x40       c60                           755
    x41       obj1                            1
    x41       c1                            672
    x41       c2                            954
    x41       c12                           752
    x41       c20                           893
    x41       c26                           225
    x41       c51                           144
    x41       c59                           947
    x42       obj1                            1
    x42       c4                            355
    x42       c5                            199
    x42       c13                           246
    x42       c22                           982
    x42       c33                           230
    x42       c38                           467
    x42       c40                           112
    x42       c52                           530
    x42       c55                           874
    x43       obj1                            1
    x43       c6                            408
    x43       c16                           466
    x44       obj1                            1
    x44       c1                            874
    x44       c25                           478
    x44       c34                           254
    x44       c41                           528
    x44       c45                           728
    x44       c53                           106
    x44       c59                           833
    x45       obj1                            1
    x45       c1                            559
    x45       c24                           597
    x45       c30                           882
    x45       c32                           312
    x45       c37                           310
    x45       c46                           962
    x45       c59                           451
    x46       obj1                            1
    x46       c5                            243
    x46       c8                            912
    x46       c28                           341
    x46       c56                           361
    x47       obj1                            1
    x47       c2                            837
    x47       c14                           682
    x47       c35                           115
    x47       c40                           266
    x47       c47                           196
    x48       obj1                            1
    x48       c5                            469
    x48       c10                           386
    x48       c29                           399
    x48       c44                           490
    x48       c47                           810
    x48       c54                           123
    x48       c60                           875
    x49       obj1                            1
    x49       c8                            156
    x49       c27                           320
    x49       c34                           814
    x49       c39                           702
    x49       c41                           956
    x49       c42                           289
    x50       obj1                            1
    x50       c2                            835
    x50       c6                            710
    x50       c23                           408
    x50       c24                           644
    x50       c31                           321
    x50       c41                           750
    x51       obj1                            1
    x51       c9                            178
    x51       c24                           800
    x51       c29                           858
    x51       c34                           873
    x51       c47                           778
    x51       c48                           483
    x51       c52                           986
    x52       obj1                            1
    x52       c16                           155
    x52       c38                           443
    x52       c40                           360
    x52       c59                           542
    x53       obj1                            1
    x53       c8                            392
    x53       c19                           908
    x53       c48                           150
    x53       c57                           727
    x54       obj1                            1
    x54       c9                            264
    x54       c18                           745
    x54       c19                           336
    x54       c31                           800
    x54       c32                           454
    x54       c43                           184
    x55       obj1                            1
    x55       c15                           611
    x55       c57                           297
    x56       obj1                            1
    x56       c43                           986
    x56       c49                           362
    x56       c53                           836
    x56       c57                           176
    x57       obj1                            1
    x57       c20                           664
    x57       c25                           187
    x57       c38                           686
    x57       c44                           932
    x57       c51                           147
    x57       c60                           339
    x58       obj1                            1
    x58       c7                            572
    x58       c10                           358
    x58       c13                           102
    x58       c30                           787
    x58       c34                           838
    x58       c57                           722
    x59       obj1                            1
    x59       c9                            323
    x59       c10                           563
    x59       c22                           308
    x59       c24                           842
    x59       c27                           302
    x59       c28                           840
    x59       c29                           422
    x59       c36                           264
    x59       c49                           154
    x59       c59                           444
    x60       obj1                            1
    x60       c14                           886
    x60       c15                           531
    x60       c20                           809
    x60       c21                           252
    x60       c29                           272
    x60       c30                           865
    x60       c52                           528
    MARK0001  'MARKER'                 'INTEND'
RHS
    rhs       c1                           3066
    rhs       c2                           2788
    rhs       c3                            923
    rhs       c4                           1106
    rhs       c5                            975
    rhs       c6                           2460
    rhs       c7                           1165
    rhs       c8                           2730
    rhs       c9                            383
    rhs       c10                          1321
    rhs       c11                          2126
    rhs       c12                           692
    rhs       c13                          1324
    rhs       c14                           920
    rhs       c15                          1288
    rhs       c16                          1960
    rhs       c17                          1606
    rhs       c18                          1345
    rhs       c19                           693
    rhs       c20                          1876
    rhs       c21                           514
    rhs       c22                          2525
    rhs       c23                          1591
    rhs       c24                          2580
    rhs       c25                          1103
    rhs       c26                           503
    rhs       c27                          1242
    rhs       c28                          2097
    rhs       c29                          1987
    rhs       c30                          2751
    rhs       c31                          1951
    rhs       c32                          1744
    rhs       c33                           558
    rhs       c34                          2747
    rhs       c35                          1887
    rhs       c36                          1221
    rhs       c37                          1297
    rhs       c38                          1822
    rhs       c39                           836
    rhs       c40                          1837
    rhs       c41                          2216
    rhs       c42                           834
    rhs       c43                          1538
    rhs       c44                          2512
    rhs       c45                          1287
    rhs       c46                          1410
    rhs       c47                          1491
    rhs       c48                          1401
    rhs       c49                          2223
    rhs       c50                           950
    rhs       c51                           948
    rhs       c52                          2640
    rhs       c53                          1737
    rhs       c54                          2548
    rhs       c55                          1855
    rhs       c56                           839
    rhs       c57                          2274
    rhs       c58                           984
    rhs       c59                          3167
    rhs       c60                          1397
BOUNDS
 LI bnd       x1        0
 LI bnd       x2        0
 LI bnd       x3        0
 LI bnd       x4        0
 LI bnd       x5        0
 LI bnd       x6        0
 LI bnd       x7        0
 LI bnd       x8        0
 LI bnd       x9        0
 LI bnd       x10       0
 LI bnd       x11       0
 LI bnd       x12       0
 LI bnd       x13       0
 LI bnd       x14       0
 LI bnd       x15       0
 LI bnd       x16       0
 LI bnd       x17       0
 LI bnd       x18       0
 LI bnd       x19       0
 LI bnd       x20       0
 LI bnd       x21       0
 LI bnd       x22       0
 LI bnd       x23       0
 LI bnd       x24       0
 LI bnd       x25       0
 LI bnd       x26       0
 LI bnd       x27       0
 LI bnd       x28       0
 LI bnd       x29       0
 LI bnd       x30       0
 LI bnd       x31       0
 LI bnd       x32       0
 LI bnd       x33       0
 LI bnd       x34       0
 LI bnd       x35       0
 LI bnd       x36       0
 LI bnd       x37       0
 LI bnd       x38       0
 LI bnd       x39       0
 LI bnd       x40       0
 LI bnd       x41       0
 LI bnd       x42       0
 LI bnd       x43       0
 LI bnd       x44       0
 LI bnd       x45       0
 LI bnd       x46       0
 LI bnd       x47       0
 LI bnd       x48       0
 LI bnd       x49       0
 LI bnd       x50       0
 LI bnd       x51       0
 LI bnd       x52       0
 LI bnd       x53       0
 LI bnd       x54       0
 LI bnd       x55       0
 LI bnd       x56       0
 LI bnd       x57       0
 LI bnd       x58       0
 LI bnd       x59       0
 LI bnd       x60       0
ENDATA
